100
128
14
1
22
35
8
11
4
2
13
19
17
6
33
2
53
15
17
3
18
58
4
61
49
12
46
47
55
4
30
30
28
51
25
3
20
36
23
34
44
7
7
50
1
39
62
3
42
63
24
5
7
42
38
26
46
1
2
27
4
2
29
58
37
47
48
28
56
46
5
1
7
61
5
7
47
57
26
45
43
8
3
35
3
33
48
26
5
26
5
57
3
38
5
40
30
56
51
25
32
40